n_res = 4;
rcap = [26, 20, 56, 44];
rtype = [1, 1, 2, 2];
n_tasks = 16;
modes = [ {1, 2, 3, 4}, {5, 6, 7, 8}, {9, 10, 11, 12}, {13, 14, 15, 16}, {17, 18, 19, 20}, {21, 22, 23, 24}, {25, 26, 27, 28}, {29, 30, 31, 32}, {33, 34, 35, 36}, {37, 38, 39, 40}, {41, 42, 43, 44}, {45, 46, 47, 48}, {49, 50, 51, 52}, {53, 54, 55, 56}, {57, 58, 59, 60}, {61, 62, 63, 64} ];
succ = [ {6, 8, 11}, {5, 8, 11}, {4, 6, 9}, {14, 16}, {6, 7, 16}, {10, 12}, {9, 13}, {9, 14, 16}, {15}, {13}, {15}, {13, 14}, {15}, {}, {}, {} ];
n_opt = 64;
dur = [4, 6, 6, 10, 1, 4, 9, 9, 7, 7, 9, 9, 1, 1, 3, 9, 6, 7, 7, 10, 4, 5, 9, 10, 2, 6, 6, 10, 2, 3, 9, 10, 1, 5, 8, 10, 3, 4, 4, 6, 2, 5, 5, 8, 1, 1, 5, 7, 3, 6, 7, 9, 3, 4, 4, 4, 1, 5, 7, 8, 2, 2, 2, 5];
rreq = [|  7,  6,  5,  4,  7,  6,  4,  2,  9,  7,  5,  6,  8,  8,  6,  5,  7,  7,  7,  5,  6,  6,  5,  3,  8,  8,  8,  6,  9,  9,  9,  8,  6,  6,  5,  5,  6,  6,  6,  6,  7,  6,  5,  4,  6,  6,  3,  2,  5,  4,  4,  3,  6,  4,  2,  2,  9,  9,  8,  8,  4,  5,  5,  4
        |  7,  5,  7,  5,  5,  4,  3,  2,  6,  9,  3,  4,  8,  7,  5,  4,  9,  4,  4,  4,  3,  3,  3,  2,  4,  4,  2,  2,  3,  3,  2,  1,  7,  6,  6,  5,  5,  5,  4,  3,  3,  2,  2,  1,  4,  4,  3,  3,  5,  3,  2,  1,  4,  1,  3,  3,  4,  4,  3,  3,  5,  6,  4,  4
        |  0,  0,  0, 10,  0,  7,  0,  7,  7,  9,  3,  0,  0,  0,  0,  0,  0,  0,  3,  2,  2,  0,  2,  0,  0,  3,  0,  0,  0,  0,  7,  0,  6,  4,  3,  0, 10,  0,  9,  9,  7,  0,  0,  7,  0, 10,  4,  0,  8,  0,  0,  0,  9,  0,  0,  9,  7,  4,  0,  0,  8,  6,  7,  5
        |  8,  8,  7,  0,  9,  0,  9,  0,  0,  0,  0,  2,  7,  8,  3,  1,  6,  2,  0,  0,  0,  6,  0,  5,  9,  0,  8,  8,  6,  5,  0,  5,  0,  0,  0,  8,  0,  2,  0,  0,  0,  4,  5,  0,  1,  0,  0,  1,  0,  7,  5,  1,  0,  2,  3,  0,  0,  0,  7,  4,  0,  0,  0,  0 |];
